NAME: instance_2579
TYPE: TSP
DIMENSION: 20
EDGE_WEIGHT_TYPE: EUC_2D
NODE_COORD_SECTION
0 57.45 93.95
1 7.02 14.63
2 62.55 15.78
3 92.51 95.95
4 28.77 35.89
5 17.55 7.40
6 19.15 1.93
7 26.43 38.56
8 61.46 23.65
9 30.55 73.88
10 60.86 16.49
11 53.65 51.30
12 54.82 8.23
13 9.26 98.69
14 63.41 72.83
15 7.14 5.33
16 52.57 99.09
17 56.91 13.06
18 92.31 70.42
19 79.40 28.07
EOF
